
  22    4
  10   10   10   10

   0   0   0   0   0   9 2 3 4 5 6 7 9 11 12 
   1  10  10  10  10   4 21 13 10 8 
   5  10  10  10  10   4 21 14 13 10 
   4  10  10  10  10   4 21 14 13 10 
   8  10  10  10  10   4 21 14 13 10 
   4  10  10  10  10   4 21 17 15 14 
   7  10  10  10  10   4 21 15 14 13 
   6  10  10  10  10   3 17 15 14 
   2  10  10  10  10   3 21 15 14 
  10  10  10  10  10   4 20 19 17 15 
   8  10  10  10  10   3 20 19 15 
   4  10  10  10  10   2 20 15 
   7  10  10  10  10   2 19 16 
   3  10  10  10  10   2 20 19 
   7  10  10  10  10   1 16 
   4  10  10  10  10   1 18 
   8  10  10  10  10   1 18 
  10  10  10  10  10   1 22
  10  10  10  10  10   1 22
   5  10  10  10  10   1 22
   8  10  10  10  10   1 22
   0   0   0   0   0   0 
